(set-info :smt-lib-version 2.6)
(set-logic UF)
(set-info :source |Benchmarks from the paper: "Extending Sledgehammer with SMT Solvers" by Jasmin Blanchette, Sascha Bohme, and Lawrence C. Paulson, CADE 2011.  Translated to SMT2 by Andrew Reynolds and Morgan Deters.|)
(set-info :category "industrial")
(set-info :status unknown)
(declare-sort S1 0)
(declare-sort S2 0)
(declare-sort S3 0)
(declare-sort S4 0)
(declare-sort S5 0)
(declare-sort S6 0)
(declare-sort S7 0)
(declare-sort S8 0)
(declare-sort S9 0)
(declare-sort S10 0)
(declare-sort S11 0)
(declare-sort S12 0)
(declare-sort S13 0)
(declare-sort S14 0)
(declare-sort S15 0)
(declare-sort S16 0)
(declare-sort S17 0)
(declare-sort S18 0)
(declare-sort S19 0)
(declare-sort S20 0)
(declare-sort S21 0)
(declare-sort S22 0)
(declare-sort S23 0)
(declare-sort S24 0)
(declare-sort S25 0)
(declare-sort S26 0)
(declare-sort S27 0)
(declare-sort S28 0)
(declare-sort S29 0)
(declare-sort S30 0)
(declare-sort S31 0)
(declare-sort S32 0)
(declare-fun f1 () S1)
(declare-fun f2 () S1)
(declare-fun f3 (S2 S3 S4 S5) S1)
(declare-fun f4 () S2)
(declare-fun f5 () S3)
(declare-fun f6 (S6 S7) S4)
(declare-fun f7 (S8 S9) S6)
(declare-fun f8 (S10 S4) S8)
(declare-fun f9 () S10)
(declare-fun f10 () S4)
(declare-fun f11 () S9)
(declare-fun f12 (S11 S12) S7)
(declare-fun f13 () S11)
(declare-fun f14 () S12)
(declare-fun f15 () S5)
(declare-fun f16 (S2 S3 S5 S13 S14) S1)
(declare-fun f17 (S15 S13) S13)
(declare-fun f18 (S16 S9) S15)
(declare-fun f19 () S16)
(declare-fun f20 (S17 S12) S13)
(declare-fun f21 () S17)
(declare-fun f22 () S14)
(declare-fun f23 (S4 S9) S7)
(declare-fun f24 (S18 S19) S5)
(declare-fun f25 (S20 S9) S18)
(declare-fun f26 (S21 S5) S20)
(declare-fun f27 () S21)
(declare-fun f28 (S5 S9) S19)
(declare-fun f29 (S22 S14) S19)
(declare-fun f30 () S22)
(declare-fun f31 (S2 S3 S12 S14) S1)
(declare-fun f32 (S23 S4) S4)
(declare-fun f33 (S24 S4) S23)
(declare-fun f34 () S24)
(declare-fun f35 (S25 S5) S5)
(declare-fun f36 (S26 S5) S25)
(declare-fun f37 () S26)
(declare-fun f38 (S27 S7) S7)
(declare-fun f39 (S28 S11) S27)
(declare-fun f40 (S29 S7) S28)
(declare-fun f41 () S29)
(declare-fun f42 (S30 S19) S19)
(declare-fun f43 (S31 S22) S30)
(declare-fun f44 (S32 S19) S31)
(declare-fun f45 () S32)
(declare-fun f46 (S7) S1)
(declare-fun f47 (S19) S1)
(assert (not (= f1 f2)))
(assert (not (= (f3 f4 f5 (f6 (f7 (f8 f9 f10) f11) (f12 f13 f14)) f15) f1)))
(assert (= (f16 f4 f5 f15 (f17 (f18 f19 f11) (f20 f21 f14)) f22) f1))
(assert (= (f3 f4 f5 f10 f15) f1))
(assert (= (f3 f4 f5 f10 f15) f1))
(assert (= (f16 f4 f5 f15 (f17 (f18 f19 f11) (f20 f21 f14)) f22) f1))
(assert (forall ((?v0 S4) (?v1 S9)) (= (f6 (f7 (f8 f9 ?v0) ?v1) (f23 ?v0 ?v1)) ?v0)))
(assert (forall ((?v0 S5) (?v1 S9)) (= (f24 (f25 (f26 f27 ?v0) ?v1) (f28 ?v0 ?v1)) ?v0)))
(assert (forall ((?v0 S4) (?v1 S9) (?v2 S12) (?v3 S9) (?v4 S12)) (let ((?v_1 (f12 f13 ?v4)) (?v_0 (= ?v3 ?v1))) (= (= (f23 (f6 (f7 (f8 f9 ?v0) ?v1) (f12 f13 ?v2)) ?v3) ?v_1) (or (and ?v_0 (= ?v2 ?v4)) (and (not ?v_0) (= (f23 ?v0 ?v3) ?v_1)))))))
(assert (forall ((?v0 S5) (?v1 S9) (?v2 S14) (?v3 S9) (?v4 S14)) (let ((?v_1 (f29 f30 ?v4)) (?v_0 (= ?v3 ?v1))) (= (= (f28 (f24 (f25 (f26 f27 ?v0) ?v1) (f29 f30 ?v2)) ?v3) ?v_1) (or (and ?v_0 (= ?v2 ?v4)) (and (not ?v_0) (= (f28 ?v0 ?v3) ?v_1)))))))
(assert (forall ((?v0 S4) (?v1 S9) (?v2 S12)) (let ((?v_0 (f12 f13 ?v2))) (=> (= (f23 ?v0 ?v1) ?v_0) (= (f6 (f7 (f8 f9 ?v0) ?v1) ?v_0) ?v0)))))
(assert (forall ((?v0 S5) (?v1 S9) (?v2 S14)) (let ((?v_0 (f29 f30 ?v2))) (=> (= (f28 ?v0 ?v1) ?v_0) (= (f24 (f25 (f26 f27 ?v0) ?v1) ?v_0) ?v0)))))
(assert (forall ((?v0 S4) (?v1 S9) (?v2 S12) (?v3 S4) (?v4 S12)) (=> (= (f6 (f7 (f8 f9 ?v0) ?v1) (f12 f13 ?v2)) (f6 (f7 (f8 f9 ?v3) ?v1) (f12 f13 ?v4))) (= ?v2 ?v4))))
(assert (forall ((?v0 S5) (?v1 S9) (?v2 S14) (?v3 S5) (?v4 S14)) (=> (= (f24 (f25 (f26 f27 ?v0) ?v1) (f29 f30 ?v2)) (f24 (f25 (f26 f27 ?v3) ?v1) (f29 f30 ?v4))) (= ?v2 ?v4))))
(assert (forall ((?v0 S4) (?v1 S9) (?v2 S7)) (= (= (f6 (f7 (f8 f9 ?v0) ?v1) ?v2) ?v0) (= (f23 ?v0 ?v1) ?v2))))
(assert (forall ((?v0 S5) (?v1 S9) (?v2 S19)) (= (= (f24 (f25 (f26 f27 ?v0) ?v1) ?v2) ?v0) (= (f28 ?v0 ?v1) ?v2))))
(assert (forall ((?v0 S4) (?v1 S9) (?v2 S7) (?v3 S7)) (let ((?v_0 (f7 (f8 f9 ?v0) ?v1))) (= (f6 (f7 (f8 f9 (f6 ?v_0 ?v2)) ?v1) ?v3) (f6 ?v_0 ?v3)))))
(assert (forall ((?v0 S5) (?v1 S9) (?v2 S19) (?v3 S19)) (let ((?v_0 (f25 (f26 f27 ?v0) ?v1))) (= (f24 (f25 (f26 f27 (f24 ?v_0 ?v2)) ?v1) ?v3) (f24 ?v_0 ?v3)))))
(assert (forall ((?v0 S4) (?v1 S9) (?v2 S7)) (= (f23 (f6 (f7 (f8 f9 ?v0) ?v1) ?v2) ?v1) ?v2)))
(assert (forall ((?v0 S5) (?v1 S9) (?v2 S19)) (= (f28 (f24 (f25 (f26 f27 ?v0) ?v1) ?v2) ?v1) ?v2)))
(assert (forall ((?v0 S4) (?v1 S9) (?v2 S7) (?v3 S9)) (= (f23 (f6 (f7 (f8 f9 ?v0) ?v1) ?v2) ?v3) (ite (= ?v3 ?v1) ?v2 (f23 ?v0 ?v3)))))
(assert (forall ((?v0 S5) (?v1 S9) (?v2 S19) (?v3 S9)) (= (f28 (f24 (f25 (f26 f27 ?v0) ?v1) ?v2) ?v3) (ite (= ?v3 ?v1) ?v2 (f28 ?v0 ?v3)))))
(assert (forall ((?v0 S9) (?v1 S9) (?v2 S4) (?v3 S7) (?v4 S7)) (let ((?v_0 (f8 f9 ?v2))) (=> (not (= ?v0 ?v1)) (= (f6 (f7 (f8 f9 (f6 (f7 ?v_0 ?v0) ?v3)) ?v1) ?v4) (f6 (f7 (f8 f9 (f6 (f7 ?v_0 ?v1) ?v4)) ?v0) ?v3))))))
(assert (forall ((?v0 S9) (?v1 S9) (?v2 S5) (?v3 S19) (?v4 S19)) (let ((?v_0 (f26 f27 ?v2))) (=> (not (= ?v0 ?v1)) (= (f24 (f25 (f26 f27 (f24 (f25 ?v_0 ?v0) ?v3)) ?v1) ?v4) (f24 (f25 (f26 f27 (f24 (f25 ?v_0 ?v1) ?v4)) ?v0) ?v3))))))
(assert (forall ((?v0 S9) (?v1 S9) (?v2 S4) (?v3 S7)) (=> (not (= ?v0 ?v1)) (= (f23 (f6 (f7 (f8 f9 ?v2) ?v1) ?v3) ?v0) (f23 ?v2 ?v0)))))
(assert (forall ((?v0 S9) (?v1 S9) (?v2 S5) (?v3 S19)) (=> (not (= ?v0 ?v1)) (= (f28 (f24 (f25 (f26 f27 ?v2) ?v1) ?v3) ?v0) (f28 ?v2 ?v0)))))
(assert (forall ((?v0 S4) (?v1 S9) (?v2 S7)) (=> (= (f23 ?v0 ?v1) ?v2) (= (f6 (f7 (f8 f9 ?v0) ?v1) ?v2) ?v0))))
(assert (forall ((?v0 S5) (?v1 S9) (?v2 S19)) (=> (= (f28 ?v0 ?v1) ?v2) (= (f24 (f25 (f26 f27 ?v0) ?v1) ?v2) ?v0))))
(assert (forall ((?v0 S4) (?v1 S9) (?v2 S7) (?v3 S9)) (= (f23 (f6 (f7 (f8 f9 ?v0) ?v1) ?v2) ?v3) (ite (= ?v3 ?v1) ?v2 (f23 ?v0 ?v3)))))
(assert (forall ((?v0 S5) (?v1 S9) (?v2 S19) (?v3 S9)) (= (f28 (f24 (f25 (f26 f27 ?v0) ?v1) ?v2) ?v3) (ite (= ?v3 ?v1) ?v2 (f28 ?v0 ?v3)))))
(assert (forall ((?v0 S12) (?v1 S9) (?v2 S13)) (not (= (f20 f21 ?v0) (f17 (f18 f19 ?v1) ?v2)))))
(assert (forall ((?v0 S9) (?v1 S13) (?v2 S12)) (not (= (f17 (f18 f19 ?v0) ?v1) (f20 f21 ?v2)))))
(assert (forall ((?v0 S9) (?v1 S13) (?v2 S9) (?v3 S13)) (= (= (f17 (f18 f19 ?v0) ?v1) (f17 (f18 f19 ?v2) ?v3)) (and (= ?v0 ?v2) (= ?v1 ?v3)))))
(assert (forall ((?v0 S12) (?v1 S12)) (= (= (f12 f13 ?v0) (f12 f13 ?v1)) (= ?v0 ?v1))))
(assert (forall ((?v0 S14) (?v1 S14)) (= (= (f29 f30 ?v0) (f29 f30 ?v1)) (= ?v0 ?v1))))
(assert (forall ((?v0 S12) (?v1 S12)) (= (= (f20 f21 ?v0) (f20 f21 ?v1)) (= ?v0 ?v1))))
(assert (forall ((?v0 S2) (?v1 S3) (?v2 S4) (?v3 S5) (?v4 S12) (?v5 S14) (?v6 S9)) (=> (= (f3 ?v0 ?v1 ?v2 ?v3) f1) (=> (= (f31 ?v0 ?v1 ?v4 ?v5) f1) (= (f3 ?v0 ?v1 (f6 (f7 (f8 f9 ?v2) ?v6) (f12 f13 ?v4)) (f24 (f25 (f26 f27 ?v3) ?v6) (f29 f30 ?v5))) f1)))))
(assert (forall ((?v0 S2) (?v1 S3) (?v2 S4) (?v3 S5) (?v4 S12) (?v5 S14) (?v6 S9)) (=> (= (f3 ?v0 ?v1 ?v2 ?v3) f1) (=> (= (f31 ?v0 ?v1 ?v4 ?v5) f1) (=> (= (f28 ?v3 ?v6) (f29 f30 ?v5)) (= (f3 ?v0 ?v1 (f6 (f7 (f8 f9 ?v2) ?v6) (f12 f13 ?v4)) ?v3) f1))))))
(assert (forall ((?v0 S4) (?v1 S4) (?v2 S9) (?v3 S12)) (let ((?v_0 (f33 f34 ?v0)) (?v_1 (f12 f13 ?v3))) (= (f32 ?v_0 (f6 (f7 (f8 f9 ?v1) ?v2) ?v_1)) (f6 (f7 (f8 f9 (f32 ?v_0 ?v1)) ?v2) ?v_1)))))
(assert (forall ((?v0 S5) (?v1 S5) (?v2 S9) (?v3 S14)) (let ((?v_0 (f36 f37 ?v0)) (?v_1 (f29 f30 ?v3))) (= (f35 ?v_0 (f24 (f25 (f26 f27 ?v1) ?v2) ?v_1)) (f24 (f25 (f26 f27 (f35 ?v_0 ?v1)) ?v2) ?v_1)))))
(assert (forall ((?v0 S5) (?v1 S5) (?v2 S5)) (let ((?v_0 (f36 f37 ?v0))) (= (f35 ?v_0 (f35 (f36 f37 ?v1) ?v2)) (f35 (f36 f37 (f35 ?v_0 ?v1)) ?v2)))))
(assert (forall ((?v0 S4) (?v1 S4) (?v2 S4)) (let ((?v_0 (f33 f34 ?v0))) (= (f32 ?v_0 (f32 (f33 f34 ?v1) ?v2)) (f32 (f33 f34 (f32 ?v_0 ?v1)) ?v2)))))
(assert (forall ((?v0 S4) (?v1 S9) (?v2 S12) (?v3 S4)) (let ((?v_0 (f12 f13 ?v2))) (=> (= (f23 ?v0 ?v1) ?v_0) (= (f23 (f32 (f33 f34 ?v3) ?v0) ?v1) ?v_0)))))
(assert (forall ((?v0 S5) (?v1 S9) (?v2 S14) (?v3 S5)) (let ((?v_0 (f29 f30 ?v2))) (=> (= (f28 ?v0 ?v1) ?v_0) (= (f28 (f35 (f36 f37 ?v3) ?v0) ?v1) ?v_0)))))
(assert (forall ((?v0 S2) (?v1 S3) (?v2 S4) (?v3 S5)) (= (= (f3 ?v0 ?v1 ?v2 ?v3) f1) (forall ((?v4 S9) (?v5 S12)) (=> (= (f23 ?v2 ?v4) (f12 f13 ?v5)) (exists ((?v6 S14)) (and (= (f28 ?v3 ?v4) (f29 f30 ?v6)) (= (f31 ?v0 ?v1 ?v5 ?v6) f1))))))))
(assert (forall ((?v0 S4) (?v1 S4) (?v2 S9)) (= (f23 (f32 (f33 f34 ?v0) ?v1) ?v2) (f38 (f39 (f40 f41 (f23 ?v0 ?v2)) f13) (f23 ?v1 ?v2)))))
(assert (forall ((?v0 S5) (?v1 S5) (?v2 S9)) (= (f28 (f35 (f36 f37 ?v0) ?v1) ?v2) (f42 (f43 (f44 f45 (f28 ?v0 ?v2)) f30) (f28 ?v1 ?v2)))))
(assert (forall ((?v0 S12)) (= (= (f46 (f12 f13 ?v0)) f1) false)))
(assert (forall ((?v0 S14)) (= (= (f47 (f29 f30 ?v0)) f1) false)))
(assert (forall ((?v0 S7) (?v1 S11) (?v2 S12)) (= (f38 (f39 (f40 f41 ?v0) ?v1) (f12 f13 ?v2)) (f12 ?v1 ?v2))))
(assert (forall ((?v0 S19) (?v1 S22) (?v2 S14)) (= (f42 (f43 (f44 f45 ?v0) ?v1) (f29 f30 ?v2)) (f29 ?v1 ?v2))))
(check-sat)
(exit)
